
List of user-set options:

                                    Name   Value                used
                           compl_inf_tol = 1                     yes
                         constr_viol_tol = 1                     yes
                            dual_inf_tol = 1000                  yes
                           linear_solver = ma97                  yes
                              ma86_small = 1e-30                  no
                                  ma86_u = 0.0001                 no
                              ma97_order = best                  yes
                              ma97_small = 1e-30                 yes
                            ma97_switch1 = at_start              yes
                            ma97_switch2 = od_hd_reuse           yes
                                  ma97_u = 1e-06                 yes
                               ma97_umax = 0.5                   yes
                                max_iter = 1000                  yes
                    max_refinement_steps = 20                    yes
                    min_refinement_steps = 5                     yes
                                 mu_init = 1e-06                 yes
           mu_superlinear_decrease_power = 1.25                  yes
                   nlp_scaling_min_value = 1e-08                 yes
                        option_file_name = Preset_Case_260_pf.opt  yes
                             output_file = ./tmp/Preset_Case_260_pf.output  yes
                      print_user_options = yes                   yes
        required_infeasibility_reduction = 1                      no
                                     tol = 1e-08                 yes
                   warm_start_bound_frac = 1e-20                 yes
                   warm_start_bound_push = 1e-20                 yes
                   warm_start_init_point = yes                   yes
              warm_start_mult_bound_push = 1e-20                 yes
                warm_start_mult_init_max = 1e+40                 yes
             warm_start_slack_bound_frac = 1e-20                 yes
             warm_start_slack_bound_push = 1e-20                 yes

******************************************************************************
This program contains Ipopt, a library for large-scale nonlinear optimization.
 Ipopt is released as open source code under the Eclipse Public License (EPL).
         For more information visit http://projects.coin-or.org/Ipopt
******************************************************************************

This is Ipopt version 3.12.10, running with linear solver ma97.

Number of nonzeros in equality constraint Jacobian...:   123443
Number of nonzeros in inequality constraint Jacobian.:      213
Number of nonzeros in Lagrangian Hessian.............:    49069

Total number of variables............................:    31591
                     variables with only lower bounds:    12912
                variables with lower and upper bounds:    15130
                     variables with only upper bounds:        0
Total number of equality constraints.................:    31483
Total number of inequality constraints...............:       25
        inequality constraints with only lower bounds:        4
   inequality constraints with lower and upper bounds:        0
        inequality constraints with only upper bounds:       21

iter    objective    inf_pr   inf_du lg(mu)  ||d||  lg(rg) alpha_du alpha_pr  ls
   0 -5.2790052e+00 4.05e-03 1.02e+00  -6.0 0.00e+00    -  0.00e+00 0.00e+00   0
   1 -5.2785134e+00 2.86e-02 1.02e+00  -6.0 4.05e+05    -  9.54e-05 4.14e-05h  6
   2 -5.2803261e+00 2.85e-02 5.05e+01  -6.0 6.84e+03    -  2.24e-01 1.90e-03h  1
   3 -5.3891936e+00 2.97e+00 2.12e+02  -6.0 6.83e+03    -  1.62e-01 1.15e-01f  1
   4 -5.4853373e+00 1.74e+01 3.52e+02  -6.0 7.20e+03    -  9.77e-02 1.24e-01h  1
   5 -5.6341564e+00 5.45e+01 6.92e+02  -6.0 7.38e+03    -  2.24e-01 2.32e-01h  1
   6 -5.6942927e+00 4.97e+01 9.93e+03  -6.0 3.52e+03    -  4.28e-01 1.47e-01h  1
   7 -5.6848034e+00 2.61e+01 3.73e+04  -6.0 5.77e+02  -4.0 1.80e-07 5.02e-01h  1
   8 -5.6745133e+00 1.18e+00 1.00e+04  -6.0 2.23e+02  -3.6 4.56e-01 1.00e+00h  1
   9 -5.6775033e+00 1.07e-03 6.80e+03  -6.0 3.00e+00  -4.1 5.61e-03 1.00e+00h  1
iter    objective    inf_pr   inf_du lg(mu)  ||d||  lg(rg) alpha_du alpha_pr  ls
  10 -5.7424540e+00 9.52e-01 2.88e+03  -6.0 2.09e+01  -4.5 5.71e-01 1.00e+00h  1
  11 -5.7880423e+00 1.58e+00 1.48e+03  -6.0 2.40e+01  -5.0 4.85e-01 1.00e+00h  1
  12 -5.8111391e+00 9.41e+00 1.49e+03  -6.0 6.16e+03    -  1.87e-02 1.13e-01h  1
  13 -5.8117426e+00 4.32e-01 8.75e+02  -6.0 2.74e+01  -5.5 3.96e-01 1.00e+00h  1
  14 -5.8199120e+00 5.66e-02 1.51e+02  -6.0 5.50e+01  -6.0 8.28e-01 1.00e+00h  1
  15 -5.8290260e+00 6.62e-02 5.08e+01  -6.0 6.98e+01  -6.4 6.62e-01 7.63e-01h  1
  16 -5.8482941e+00 4.75e-01 2.70e+01  -6.0 1.25e+02  -6.9 4.68e-01 1.00e+00f  1
  17 -5.8613314e+00 1.42e+00 1.14e+01  -6.0 2.64e+02  -7.4 5.78e-01 7.95e-01h  1
  18 -5.8628437e+00 1.20e+00 1.02e+01  -6.0 5.83e+02  -7.9 2.59e-01 2.59e-01h  1
  19 -5.8708066e+00 2.65e+00 1.99e+03  -6.0 1.90e+03  -8.3 1.74e-02 1.44e-01h  1
iter    objective    inf_pr   inf_du lg(mu)  ||d||  lg(rg) alpha_du alpha_pr  ls
  20 -5.8732316e+00 2.49e+00 3.86e+03  -6.0 2.27e+03  -8.8 3.56e-01 5.84e-02h  1
  21 -5.8732926e+00 2.49e+00 3.85e+03  -6.0 1.93e+05  -9.3 2.77e-04 6.42e-04h  1
  22 -5.8864045e+00 8.69e+00 3.50e+03  -6.0 4.01e+03    -  2.27e-01 1.98e-01h  1
  23 -5.8986263e+00 6.83e+00 2.47e+03  -6.0 3.10e+03    -  2.94e-01 2.94e-01h  1
  24 -5.9182710e+00 1.19e+01 1.53e+04  -6.0 2.09e+03    -  3.23e-01 7.80e-01h  1
  25 -5.9194353e+00 5.81e+01 1.86e+04  -6.0 1.53e+04    -  6.48e-02 1.08e-01h  1
  26 -5.9196768e+00 5.69e+01 3.40e+04  -6.0 1.30e+03    -  5.62e-06 2.02e-02h  1
  27 -5.9227113e+00 4.17e+01 4.66e+04  -6.0 5.79e+02    -  4.21e-02 2.68e-01h  1
  28 -5.9248422e+00 3.44e+01 3.20e+04  -6.0 5.33e+02    -  2.07e-01 1.76e-01h  1
  29 -5.9306720e+00 1.67e+01 4.40e+04  -6.0 4.39e+02    -  7.66e-01 5.13e-01h  1
iter    objective    inf_pr   inf_du lg(mu)  ||d||  lg(rg) alpha_du alpha_pr  ls
  30 -5.9310424e+00 1.63e+01 1.19e+05  -6.0 2.00e+03    -  6.82e-02 2.73e-02h  1
  31 -5.9310469e+00 1.63e+01 8.26e+04  -6.0 3.03e+02    -  1.20e-01 2.16e-04h  1
  32 -5.9314208e+00 1.59e+01 1.39e+04  -6.0 4.04e+04    -  7.88e-03 2.23e-02h  1
  33 -5.9314220e+00 1.59e+01 3.21e+05  -6.0 4.85e+02    -  2.06e-01 5.63e-05h  1
  34 -5.9314319e+00 1.59e+01 3.22e+05  -6.0 7.23e+04    -  8.80e-04 5.18e-04h  1
  35 -5.9422211e+00 5.67e+00 1.51e+06  -6.0 6.82e+02    -  7.76e-02 6.43e-01h  1
  36 -5.9500061e+00 4.11e+00 8.59e+04  -6.0 6.08e+02  -8.9 8.67e-01 2.76e-01h  1
  37 -5.9570264e+00 3.10e+00 6.19e+05  -6.0 6.18e+02    -  6.29e-01 2.79e-01h  1
  38 -5.9600008e+00 2.74e+00 1.03e+06  -6.0 5.61e+02    -  6.78e-02 1.50e-01h  1
  39r-5.9600008e+00 2.74e+00 1.00e+03   0.2 0.00e+00    -  0.00e+00 7.36e-08R  2
iter    objective    inf_pr   inf_du lg(mu)  ||d||  lg(rg) alpha_du alpha_pr  ls
  40r-6.1594414e+00 2.74e+00 1.00e+03   0.2 3.94e+04    -  2.72e-06 1.20e-06f  1
  41 -6.1451526e+00 2.54e+00 7.26e+04  -6.0 1.42e+02    -  2.74e-02 7.24e-02h  1
  42 -6.1255444e+00 2.27e+00 4.60e+04  -6.0 2.96e+01    -  7.24e-02 1.04e-01h  1
  43 -6.1222942e+00 2.23e+00 4.50e+04  -6.0 1.34e+01    -  1.74e-01 2.11e-02h  1
  44 -6.0822868e+00 1.69e+00 3.42e+04  -6.0 1.27e+01    -  2.58e-01 2.41e-01h  1
  45 -6.0347113e+00 1.06e+00 2.13e+04  -6.0 8.92e+00    -  6.86e-01 3.75e-01h  1
  46 -5.9906948e+00 4.71e-01 9.51e+03  -6.0 4.44e+00    -  8.48e-01 5.55e-01h  1
  47 -5.9839214e+00 3.80e-01 7.68e+03  -6.0 2.45e+00    -  9.51e-01 1.92e-01h  1
  48 -5.9554999e+00 1.44e-03 3.79e+01  -6.0 5.05e+00  -5.7 9.84e-01 1.00e+00h  1
  49 -5.9574969e+00 7.22e-02 3.30e+01  -6.0 1.92e+02    -  8.63e-01 1.70e-01h  1
iter    objective    inf_pr   inf_du lg(mu)  ||d||  lg(rg) alpha_du alpha_pr  ls
  50 -5.9598461e+00 1.48e-01 3.60e+03  -6.0 2.87e+02    -  9.48e-01 3.40e-01f  2
  51 -5.9608003e+00 3.81e-01 2.32e+03  -6.0 5.13e+02    -  9.78e-01 2.39e-01h  2
  52 -5.9611039e+00 3.61e-01 1.80e+03  -6.0 4.98e+02    -  4.44e-01 1.07e-01h  2
  53 -5.9614519e+00 3.45e-01 8.54e+02  -6.0 5.27e+02    -  8.58e-01 1.45e-01h  2
  54 -5.9616393e+00 3.20e-01 6.61e+02  -6.0 5.50e+02    -  1.95e-01 9.96e-02h  3
  55 -5.9623688e+00 1.96e+00 8.09e+00  -6.0 6.90e+02    -  6.54e-01 4.33e-01h  1
  56 -5.9624886e+00 2.09e+00 4.30e+02  -6.0 1.10e+03    -  2.36e-01 1.62e-01h  1
  57 -5.9624890e+00 2.08e+00 4.24e+02  -6.0 5.30e+02    -  7.91e-04 2.12e-03H  1
  58 -5.9621511e+00 6.12e-01 3.51e+03  -6.0 3.26e+02    -  4.40e-03 7.06e-01H  1
  59 -5.9620312e+00 3.09e-01 1.77e+03  -6.0 4.87e+00  -6.2 8.81e-01 4.95e-01h  1
iter    objective    inf_pr   inf_du lg(mu)  ||d||  lg(rg) alpha_du alpha_pr  ls
  60 -5.9619530e+00 2.47e-03 1.01e+01  -6.0 7.75e+00  -6.7 1.00e+00 1.00e+00h  1
  61 -5.9619648e+00 2.33e-01 4.19e+01  -6.0 3.43e+03    -  4.23e-01 1.00e-02h  2
  62 -5.9620306e+00 5.12e-01 9.19e+00  -6.0 2.20e+02    -  1.00e+00 5.07e-01h  1
  63 -5.9620690e+00 9.46e-01 3.16e+00  -6.0 3.44e+02    -  1.00e+00 6.29e-01h  1
  64 -5.9621098e+00 3.04e+00 1.08e+01  -6.0 7.54e+02    -  1.00e+00 5.00e-01h  2
  65 -5.9620542e+00 2.92e+00 6.25e+00  -6.0 4.08e+02    -  1.02e-01 1.00e+00h  1
  66 -5.9620658e+00 1.11e+00 5.88e-01  -6.0 2.50e+02    -  1.00e+00 1.00e+00h  1
  67 -5.9620557e+00 1.52e-02 7.90e-03  -6.0 2.83e+01    -  1.00e+00 1.00e+00h  1
  68 -5.9620554e+00 5.26e-08 5.60e-07  -6.0 5.48e-02    -  1.00e+00 1.00e+00h  1
  69 -5.9621816e+00 2.94e+00 8.06e+01  -7.5 5.46e+02    -  5.16e-01 7.95e-01h  1
iter    objective    inf_pr   inf_du lg(mu)  ||d||  lg(rg) alpha_du alpha_pr  ls
  70 -5.9621706e+00 8.23e-01 2.66e+01  -7.5 1.12e+02    -  7.09e-01 7.62e-01h  1
  71 -5.9621652e+00 3.42e-02 4.89e-02  -7.5 4.54e+01    -  1.00e+00 1.00e+00h  1
  72 -5.9621649e+00 1.06e-05 1.04e-05  -7.5 7.78e-01    -  1.00e+00 1.00e+00h  1
  73 -5.9621649e+00 2.28e-10 6.04e-11  -7.5 2.47e-03    -  1.00e+00 1.00e+00h  1
  74 -5.9621664e+00 4.18e-03 8.16e-01  -9.0 1.93e+01    -  9.23e-01 8.34e-01h  1
  75 -5.9621667e+00 1.72e-04 5.93e-04  -9.0 3.27e+00    -  1.00e+00 1.00e+00h  1
  76 -5.9621667e+00 2.84e-10 6.34e-09  -9.0 2.84e-03    -  1.00e+00 1.00e+00h  1

Number of Iterations....: 76

                                   (scaled)                 (unscaled)
Objective...............:  -4.6579427031495930e+00   -5.9621666600314791e+00
Dual infeasibility......:   6.3356981080350829e-09    8.1096935782849069e-09
Constraint violation....:   2.8436409206088892e-10    2.8436409206088892e-10
Complementarity.........:   1.4615966534259680e-09    1.8708437163852391e-09
Overall NLP error.......:   6.3356981080350829e-09    8.1096935782849069e-09


Number of objective function evaluations             = 109
Number of objective gradient evaluations             = 77
Number of equality constraint evaluations            = 109
Number of inequality constraint evaluations          = 109
Number of equality constraint Jacobian evaluations   = 78
Number of inequality constraint Jacobian evaluations = 78
Number of Lagrangian Hessian evaluations             = 76
Total CPU secs in IPOPT (w/o function evaluations)   =    162.635
Total CPU secs in NLP function evaluations           =      3.249

EXIT: Optimal Solution Found.
